NAME          SET_PARTITION
ROWS
 N  COST
 E  ELEM1
 E  ELEM2
 E  ELEM3
 E  ELEM4
 E  ELEM5
 E  ELEM6
 E  ELEM7
 E  ELEM8
 E  ELEM9
 E  ELEM10
 E  ELEM11
 E  ELEM12
 E  ELEM13
 E  ELEM14
 E  ELEM15
 E  ELEM16
 E  ELEM17
 E  ELEM18
 E  ELEM19
 E  ELEM20
 E  ELEM21
 E  ELEM22
 E  ELEM23
 E  ELEM24
 E  ELEM25
 E  ELEM26
 E  ELEM27
 E  ELEM28
 E  ELEM29
 E  ELEM30
 E  ELEM31
 E  ELEM32
 E  ELEM33
 E  ELEM34
 E  ELEM35
 E  ELEM36
 E  ELEM37
 E  ELEM38
 E  ELEM39
 E  ELEM40
 E  ELEM41
 E  ELEM42
 E  ELEM43
 E  ELEM44
 E  ELEM45
 E  ELEM46
 E  ELEM47
 E  ELEM48
 E  ELEM49
 E  ELEM50
 E  ELEM51
 E  ELEM52
 E  ELEM53
 E  ELEM54
 E  ELEM55
 E  ELEM56
 E  ELEM57
 E  ELEM58
 E  ELEM59
 E  ELEM60
COLUMNS
    X1       COST      12         ELEM18    1          ELEM19    1          
    X1       ELEM21    1          ELEM45    1          
    X1       ELEM46    1          ELEM54    1          
    X1       ELEM56    1          
    X2       COST      47         ELEM1     1          ELEM9     1          
    X2       ELEM22    1          ELEM24    1          
    X2       ELEM29    1          ELEM51    1          
    X2       ELEM58    1          
    X3       COST      4          ELEM7     1          ELEM10    1          
    X3       ELEM11    1          ELEM13    1          
    X3       ELEM14    1          ELEM17    1          
    X3       ELEM19    1          ELEM23    1          
    X3       ELEM29    1          ELEM37    1          
    X3       ELEM38    1          ELEM40    1          
    X3       ELEM49    1          ELEM56    1          
    X4       COST      8          ELEM39    1          ELEM43    1          
    X5       COST      73         ELEM2     1          ELEM5     1          
    X5       ELEM7     1          ELEM11    1          
    X5       ELEM15    1          ELEM25    1          
    X5       ELEM26    1          ELEM31    1          
    X5       ELEM32    1          ELEM34    1          
    X5       ELEM35    1          ELEM42    1          
    X5       ELEM47    1          ELEM48    1          
    X5       ELEM49    1          ELEM55    1          
    X5       ELEM57    1          
    X6       COST      98         ELEM1     1          ELEM14    1          
    X6       ELEM16    1          ELEM18    1          
    X6       ELEM21    1          ELEM29    1          
    X6       ELEM32    1          ELEM44    1          
    X6       ELEM47    1          ELEM50    1          
    X6       ELEM52    1          ELEM57    1          
    X7       COST      18         ELEM6     1          ELEM7     1          
    X7       ELEM11    1          ELEM17    1          
    X7       ELEM24    1          ELEM28    1          
    X7       ELEM36    1          ELEM40    1          
    X7       ELEM42    1          ELEM51    1          
    X7       ELEM60    1          
    X8       COST      22         ELEM8     1          ELEM12    1          
    X8       ELEM15    1          ELEM18    1          
    X8       ELEM22    1          ELEM24    1          
    X8       ELEM26    1          ELEM27    1          
    X8       ELEM33    1          ELEM45    1          
    X8       ELEM48    1          ELEM52    1          
    X8       ELEM59    1          ELEM60    1          
    X9       COST      20         ELEM30    1          ELEM34    1          
    X9       ELEM35    1          ELEM49    1          
    X9       ELEM55    1          
    X10      COST      2          ELEM2     1          ELEM4     1          
    X10      ELEM5     1          ELEM9     1          
    X10      ELEM10    1          ELEM13    1          
    X10      ELEM15    1          ELEM25    1          
    X10      ELEM27    1          ELEM33    1          
    X10      ELEM37    1          ELEM41    1          
    X10      ELEM48    1          ELEM53    1          
    X10      ELEM54    1          ELEM56    1          
    X10      ELEM58    1          
    X11      COST      63         ELEM1     1          ELEM2     1          
    X11      ELEM3     1          ELEM4     1          
    X11      ELEM9     1          ELEM21    1          
    X11      ELEM32    1          ELEM36    1          
    X11      ELEM39    1          ELEM41    1          
    X11      ELEM43    1          ELEM50    1          
    X11      ELEM55    1          ELEM57    1          
    X12      COST      85         ELEM3     1          ELEM8     1          
    X12      ELEM12    1          ELEM19    1          
    X12      ELEM20    1          ELEM22    1          
    X12      ELEM23    1          ELEM26    1          
    X12      ELEM31    1          ELEM38    1          
    X12      ELEM45    1          ELEM46    1          
    X12      ELEM59    1          
    X13      COST      42         ELEM4     1          ELEM6     1          
    X13      ELEM12    1          ELEM27    1          
    X13      ELEM28    1          ELEM30    1          
    X13      ELEM33    1          ELEM37    1          
    X13      ELEM41    1          ELEM43    1          
    X13      ELEM50    1          ELEM59    1          
    X13      ELEM60    1          
    X14      COST      48         ELEM3     1          ELEM8     1          
    X14      ELEM10    1          ELEM13    1          
    X14      ELEM14    1          ELEM16    1          
    X14      ELEM17    1          ELEM20    1          
    X14      ELEM23    1          ELEM36    1          
    X14      ELEM38    1          ELEM39    1          
    X14      ELEM40    1          ELEM44    1          
    X14      ELEM52    1          ELEM53    1          
    X15      COST      5          ELEM5     1          ELEM6     1          
    X15      ELEM16    1          ELEM20    1          
    X15      ELEM25    1          ELEM28    1          
    X15      ELEM30    1          ELEM31    1          
    X15      ELEM34    1          ELEM35    1          
    X15      ELEM42    1          ELEM44    1          
    X15      ELEM46    1          ELEM47    1          
    X15      ELEM51    1          ELEM53    1          
    X15      ELEM54    1          ELEM58    1          
RHS
    RHS       ELEM1     1       
    RHS       ELEM2     1       
    RHS       ELEM3     1       
    RHS       ELEM4     1       
    RHS       ELEM5     1       
    RHS       ELEM6     1       
    RHS       ELEM7     1       
    RHS       ELEM8     1       
    RHS       ELEM9     1       
    RHS       ELEM10    1       
    RHS       ELEM11    1       
    RHS       ELEM12    1       
    RHS       ELEM13    1       
    RHS       ELEM14    1       
    RHS       ELEM15    1       
    RHS       ELEM16    1       
    RHS       ELEM17    1       
    RHS       ELEM18    1       
    RHS       ELEM19    1       
    RHS       ELEM20    1       
    RHS       ELEM21    1       
    RHS       ELEM22    1       
    RHS       ELEM23    1       
    RHS       ELEM24    1       
    RHS       ELEM25    1       
    RHS       ELEM26    1       
    RHS       ELEM27    1       
    RHS       ELEM28    1       
    RHS       ELEM29    1       
    RHS       ELEM30    1       
    RHS       ELEM31    1       
    RHS       ELEM32    1       
    RHS       ELEM33    1       
    RHS       ELEM34    1       
    RHS       ELEM35    1       
    RHS       ELEM36    1       
    RHS       ELEM37    1       
    RHS       ELEM38    1       
    RHS       ELEM39    1       
    RHS       ELEM40    1       
    RHS       ELEM41    1       
    RHS       ELEM42    1       
    RHS       ELEM43    1       
    RHS       ELEM44    1       
    RHS       ELEM45    1       
    RHS       ELEM46    1       
    RHS       ELEM47    1       
    RHS       ELEM48    1       
    RHS       ELEM49    1       
    RHS       ELEM50    1       
    RHS       ELEM51    1       
    RHS       ELEM52    1       
    RHS       ELEM53    1       
    RHS       ELEM54    1       
    RHS       ELEM55    1       
    RHS       ELEM56    1       
    RHS       ELEM57    1       
    RHS       ELEM58    1       
    RHS       ELEM59    1       
    RHS       ELEM60    1       
BOUNDS
 BV BND1      X1
 BV BND1      X2
 BV BND1      X3
 BV BND1      X4
 BV BND1      X5
 BV BND1      X6
 BV BND1      X7
 BV BND1      X8
 BV BND1      X9
 BV BND1      X10
 BV BND1      X11
 BV BND1      X12
 BV BND1      X13
 BV BND1      X14
 BV BND1      X15
ENDATA
